MLW03
Position Depot: Center
Horizon for Depot: Large
Position of customers: Mixt
Distribution of the demand: Large
Width of time windows: Wide
Distribution of the service: Small

VEHICLE 
NUMBER 	 CAPACITY 
 16 	 	 321 
 
CUSTOMER
CUST NO. 	 XCOORD.  	 YCOORD. 	 DEMAND 	 READY TIME 	 DUE DATE 	 SERVICE TIME 
 0 	 	 500 	 	 500 	 	 0 	 	 0 	 	 4014 	 	 0 
  1 	 	 380 	 	 991 	 	 1 	 	 2343 	 	 2762 	 	 62 
  2 	 	 371 	 	 71 	 	 62 	 	 1220 	 	 1597 	 	 72 
  3 	 	 240 	 	 317 	 	 47 	 	 3278 	 	 3519 	 	 95 
  4 	 	 229 	 	 311 	 	 15 	 	 89 	 	 363 	 	 77 
  5 	 	 325 	 	 52 	 	 45 	 	 979 	 	 1361 	 	 99 
  6 	 	 238 	 	 258 	 	 16 	 	 2061 	 	 2266 	 	 55 
  7 	 	 346 	 	 54 	 	 9 	 	 2937 	 	 3152 	 	 73 
  8 	 	 317 	 	 214 	 	 94 	 	 1995 	 	 2336 	 	 51 
  9 	 	 374 	 	 62 	 	 44 	 	 2380 	 	 2589 	 	 53 
  10 	 	 282 	 	 384 	 	 73 	 	 1057 	 	 1345 	 	 92 
  11 	 	 397 	 	 45 	 	 62 	 	 77 	 	 513 	 	 99 
  12 	 	 385 	 	 49 	 	 85 	 	 1522 	 	 1729 	 	 63 
  13 	 	 121 	 	 219 	 	 71 	 	 1315 	 	 1693 	 	 50 
  14 	 	 367 	 	 972 	 	 93 	 	 3483 	 	 3756 	 	 93 
  15 	 	 540 	 	 92 	 	 86 	 	 2146 	 	 2493 	 	 64 
  16 	 	 389 	 	 933 	 	 16 	 	 1507 	 	 1834 	 	 65 
  17 	 	 218 	 	 385 	 	 68 	 	 981 	 	 1326 	 	 89 
  18 	 	 344 	 	 112 	 	 57 	 	 1378 	 	 1710 	 	 89 
  19 	 	 402 	 	 977 	 	 88 	 	 2207 	 	 2660 	 	 58 
  20 	 	 526 	 	 156 	 	 92 	 	 289 	 	 687 	 	 92 
  21 	 	 403 	 	 95 	 	 23 	 	 2840 	 	 3150 	 	 76 
  22 	 	 428 	 	 995 	 	 65 	 	 2363 	 	 2627 	 	 73 
  23 	 	 349 	 	 237 	 	 4 	 	 3658 	 	 4014 	 	 67 
  24 	 	 370 	 	 196 	 	 69 	 	 1220 	 	 1618 	 	 55 
  25 	 	 415 	 	 3 	 	 56 	 	 2965 	 	 3247 	 	 51 
  26 	 	 386 	 	 976 	 	 66 	 	 3154 	 	 3539 	 	 73 
  27 	 	 207 	 	 331 	 	 45 	 	 3067 	 	 3267 	 	 92 
  28 	 	 230 	 	 302 	 	 93 	 	 3208 	 	 3494 	 	 67 
  29 	 	 565 	 	 181 	 	 31 	 	 548 	 	 1005 	 	 69 
  30 	 	 365 	 	 913 	 	 38 	 	 3233 	 	 3559 	 	 59 
  31 	 	 346 	 	 23 	 	 68 	 	 2142 	 	 2423 	 	 64 
  32 	 	 255 	 	 335 	 	 93 	 	 1920 	 	 2418 	 	 54 
  33 	 	 243 	 	 284 	 	 46 	 	 3382 	 	 3654 	 	 64 
  34 	 	 278 	 	 120 	 	 97 	 	 1421 	 	 1873 	 	 67 
  35 	 	 231 	 	 205 	 	 31 	 	 3539 	 	 4014 	 	 78 
  36 	 	 276 	 	 288 	 	 53 	 	 3572 	 	 4014 	 	 67 
  37 	 	 338 	 	 106 	 	 20 	 	 1829 	 	 2029 	 	 52 
  38 	 	 374 	 	 122 	 	 3 	 	 3034 	 	 3313 	 	 99 
  39 	 	 478 	 	 10 	 	 73 	 	 3098 	 	 3431 	 	 58 
  40 	 	 456 	 	 138 	 	 73 	 	 86 	 	 401 	 	 90 
  41 	 	 244 	 	 434 	 	 69 	 	 1354 	 	 1808 	 	 73 
  42 	 	 304 	 	 135 	 	 19 	 	 1821 	 	 2135 	 	 86 
  43 	 	 465 	 	 828 	 	 32 	 	 2645 	 	 2864 	 	 97 
  44 	 	 271 	 	 410 	 	 20 	 	 2866 	 	 3238 	 	 95 
  45 	 	 334 	 	 60 	 	 47 	 	 1842 	 	 2064 	 	 76 
  46 	 	 212 	 	 283 	 	 41 	 	 680 	 	 1093 	 	 82 
  47 	 	 408 	 	 123 	 	 57 	 	 158 	 	 426 	 	 50 
  48 	 	 404 	 	 972 	 	 99 	 	 2418 	 	 2697 	 	 98 
  49 	 	 381 	 	 48 	 	 60 	 	 202 	 	 514 	 	 65 
  50 	 	 328 	 	 261 	 	 40 	 	 1625 	 	 1835 	 	 82 
  51 	 	 312 	 	 100 	 	 43 	 	 963 	 	 1188 	 	 69 
  52 	 	 795 	 	 210 	 	 17 	 	 3152 	 	 3500 	 	 56 
  53 	 	 134 	 	 617 	 	 53 	 	 683 	 	 963 	 	 71 
  54 	 	 201 	 	 776 	 	 98 	 	 3004 	 	 3253 	 	 89 
  55 	 	 201 	 	 483 	 	 15 	 	 352 	 	 684 	 	 98 
  56 	 	 691 	 	 157 	 	 67 	 	 3539 	 	 3806 	 	 50 
  57 	 	 145 	 	 626 	 	 3 	 	 3460 	 	 3939 	 	 59 
  58 	 	 947 	 	 563 	 	 88 	 	 721 	 	 1029 	 	 91 
  59 	 	 252 	 	 335 	 	 36 	 	 1621 	 	 1855 	 	 99 
  60 	 	 1000 	 	 534 	 	 17 	 	 1184 	 	 1639 	 	 59 
  61 	 	 344 	 	 159 	 	 56 	 	 2072 	 	 2392 	 	 75 
  62 	 	 558 	 	 574 	 	 93 	 	 1242 	 	 1674 	 	 86 
  63 	 	 692 	 	 623 	 	 86 	 	 488 	 	 717 	 	 100 
  64 	 	 406 	 	 162 	 	 57 	 	 196 	 	 627 	 	 89 
  65 	 	 598 	 	 433 	 	 84 	 	 2134 	 	 2361 	 	 51 
  66 	 	 722 	 	 999 	 	 58 	 	 2555 	 	 2932 	 	 79 
  67 	 	 539 	 	 251 	 	 47 	 	 656 	 	 947 	 	 93 
  68 	 	 973 	 	 212 	 	 22 	 	 3174 	 	 3388 	 	 92 
  69 	 	 812 	 	 522 	 	 5 	 	 3483 	 	 3956 	 	 80 
  70 	 	 391 	 	 681 	 	 19 	 	 940 	 	 1184 	 	 98 
  71 	 	 503 	 	 511 	 	 20 	 	 1221 	 	 1601 	 	 80 
  72 	 	 939 	 	 674 	 	 87 	 	 1967 	 	 2296 	 	 63 
  73 	 	 342 	 	 726 	 	 18 	 	 2781 	 	 3126 	 	 70 
  74 	 	 872 	 	 970 	 	 57 	 	 191 	 	 659 	 	 54 
  75 	 	 555 	 	 829 	 	 80 	 	 2536 	 	 2927 	 	 53 
  76 	 	 900 	 	 164 	 	 21 	 	 896 	 	 1101 	 	 61 
  77 	 	 698 	 	 296 	 	 72 	 	 3269 	 	 3741 	 	 58 
  78 	 	 945 	 	 875 	 	 96 	 	 3624 	 	 4002 	 	 95 
  79 	 	 657 	 	 381 	 	 32 	 	 3332 	 	 3595 	 	 71 
  80 	 	 217 	 	 143 	 	 28 	 	 898 	 	 1256 	 	 62 
  81 	 	 216 	 	 19 	 	 91 	 	 2662 	 	 2894 	 	 62 
  82 	 	 861 	 	 635 	 	 12 	 	 996 	 	 1458 	 	 76 
  83 	 	 502 	 	 325 	 	 89 	 	 994 	 	 1336 	 	 61 
  84 	 	 74 	 	 233 	 	 32 	 	 3009 	 	 3371 	 	 59 
  85 	 	 29 	 	 434 	 	 90 	 	 2660 	 	 3159 	 	 75 
  86 	 	 501 	 	 457 	 	 41 	 	 1874 	 	 2302 	 	 94 
  87 	 	 486 	 	 627 	 	 84 	 	 897 	 	 1302 	 	 61 
  88 	 	 721 	 	 415 	 	 34 	 	 420 	 	 684 	 	 81 
  89 	 	 894 	 	 961 	 	 83 	 	 1728 	 	 2035 	 	 53 
  90 	 	 515 	 	 975 	 	 72 	 	 304 	 	 522 	 	 59 
  91 	 	 749 	 	 91 	 	 38 	 	 3625 	 	 3832 	 	 72 
  92 	 	 888 	 	 77 	 	 69 	 	 1721 	 	 2139 	 	 88 
  93 	 	 382 	 	 62 	 	 50 	 	 624 	 	 953 	 	 97 
  94 	 	 736 	 	 122 	 	 74 	 	 3206 	 	 3596 	 	 62 
  95 	 	 247 	 	 316 	 	 46 	 	 2590 	 	 3023 	 	 63 
  96 	 	 515 	 	 596 	 	 23 	 	 2226 	 	 2650 	 	 74 
  97 	 	 299 	 	 243 	 	 64 	 	 2564 	 	 3036 	 	 89 
  98 	 	 818 	 	 744 	 	 97 	 	 1657 	 	 2077 	 	 86 
  99 	 	 499 	 	 137 	 	 57 	 	 2619 	 	 3040 	 	 83 
  100 	 	 969 	 	 857 	 	 62 	 	 497 	 	 926 	 	 97 
 